c FILE /home/rafael/Documents/HappySet/MIHS/inputs/happygen/output/graph_d_regular_k5_p0.2_v50_20241127_082628.txt
c SOURCE This is a d-regular graph formed for the happy graph colouring problem.
c DESCRIPTION It was generated using the problem generator of Rhyd Lewis
c
c GRAPH STATS
c Seed                             = -1201027588
c Number of Nodes                  = 50
c Number of colours k              = 5
c Number of pre-assignments        = 10
c Degree of all vertices           = 6
c Density                          = 0.122449
c 
c The degrees of nodes 1 to 50, respectively, are as follows 
c [6, 6, 6, 6, 6, 6, 6, 6, 6, 6, 6, 6, 6, 6, 6, 6, 6, 6, 6, 6, 6, 6, 6, 6, 6, 6, 
c  6, 6, 6, 6, 6, 6, 6, 6, 6, 6, 6, 6, 6, 6, 6, 6, 6, 6, 6, 6, 6, 6, 6, 6] 
c  
p edge 50 150 5
e 1 15
e 1 16
e 1 19
e 1 24
e 1 28
e 1 38
e 2 12
e 2 14
e 2 19
e 2 25
e 2 48
e 2 49
e 3 10
e 3 16
e 3 21
e 3 32
e 3 42
e 3 44
e 4 10
e 4 11
e 4 15
e 4 20
e 4 34
e 4 48
e 5 24
e 5 30
e 5 33
e 5 37
e 5 43
e 5 47
e 6 10
e 6 17
e 6 19
e 6 30
e 6 38
e 6 46
e 7 8
e 7 16
e 7 21
e 7 31
e 7 38
e 7 39
e 8 9
e 8 18
e 8 29
e 8 40
e 8 50
e 9 21
e 9 26
e 9 29
e 9 36
e 9 41
e 10 22
e 10 32
e 10 44
e 11 22
e 11 31
e 11 35
e 11 38
e 11 39
e 12 14
e 12 27
e 12 28
e 12 29
e 12 48
e 13 15
e 13 26
e 13 36
e 13 43
e 13 45
e 13 47
e 14 24
e 14 28
e 14 30
e 14 35
e 15 25
e 15 27
e 15 31
e 16 25
e 16 37
e 16 39
e 17 19
e 17 20
e 17 25
e 17 29
e 17 46
e 18 21
e 18 33
e 18 40
e 18 43
e 18 47
e 19 23
e 19 46
e 20 23
e 20 29
e 20 33
e 20 44
e 21 41
e 21 42
e 22 29
e 22 43
e 22 44
e 22 47
e 23 26
e 23 28
e 23 30
e 23 33
e 24 34
e 24 43
e 24 48
e 25 41
e 25 42
e 26 34
e 26 37
e 26 50
e 27 31
e 27 40
e 27 41
e 27 45
e 28 35
e 28 37
e 30 41
e 30 50
e 31 36
e 31 39
e 32 36
e 32 37
e 32 38
e 32 49
e 33 45
e 33 49
e 34 44
e 34 48
e 34 50
e 35 40
e 35 42
e 35 47
e 36 39
e 36 45
e 37 39
e 38 40
e 40 44
e 41 42
e 42 46
e 43 50
e 45 46
e 45 49
e 46 49
e 47 49
e 48 50
n 16 5
n 19 3
n 21 2
n 22 4
n 23 3
n 29 4
n 32 5
n 33 3
n 35 1
n 44 4
